NAME          
ROWS
 N  OBJ
 L  c1
 L  c2
 L  c3
 L  c4
 L  c5
COLUMNS
    MARKER    'MARKER'                 'INTORG'
    x[1]      c1        964
    x[1]      c2        803
    x[1]      c3        941
    x[1]      c4        524
    x[1]      c5        660
    x[1]      OBJ       -593
    x[2]      c1        625
    x[2]      c2        340
    x[2]      c3        720
    x[2]      c4        992
    x[2]      c5        179
    x[2]      OBJ       -691
    x[3]      c1        793
    x[3]      c2        503
    x[3]      c3        17
    x[3]      c4        516
    x[3]      c5        482
    x[3]      OBJ       -49
    x[4]      c1        213
    x[4]      c2        215
    x[4]      c3        329
    x[4]      c4        865
    x[4]      c5        456
    x[4]      OBJ       -23
    x[5]      c1        132
    x[5]      c2        787
    x[5]      c3        409
    x[5]      c4        219
    x[5]      c5        157
    x[5]      OBJ       -902
    x[6]      c1        809
    x[6]      c2        318
    x[6]      c3        333
    x[6]      c4        243
    x[6]      c5        121
    x[6]      OBJ       -609
    x[7]      c1        964
    x[7]      c2        975
    x[7]      c3        859
    x[7]      c4        231
    x[7]      c5        285
    x[7]      OBJ       -856
    x[8]      c1        258
    x[8]      c2        606
    x[8]      c3        449
    x[8]      c4        612
    x[8]      c5        699
    x[8]      OBJ       -324
    x[9]      c1        835
    x[9]      c2        734
    x[9]      c3        383
    x[9]      c4        210
    x[9]      c5        655
    x[9]      OBJ       -42
    x[10]     c1        936
    x[10]     c2        365
    x[10]     c3        942
    x[10]     c4        412
    x[10]     c5        711
    x[10]     OBJ       -698
    x[11]     c1        129
    x[11]     c2        721
    x[11]     c3        434
    x[11]     c4        242
    x[11]     c5        959
    x[11]     OBJ       -353
    x[12]     c1        182
    x[12]     c2        548
    x[12]     c3        240
    x[12]     c4        123
    x[12]     c5        75
    x[12]     OBJ       -545
    x[13]     c1        51
    x[13]     c2        343
    x[13]     c3        453
    x[13]     c4        216
    x[13]     c5        419
    x[13]     OBJ       -532
    x[14]     c1        342
    x[14]     c2        164
    x[14]     c3        31
    x[14]     c4        259
    x[14]     c5        945
    x[14]     OBJ       -415
    x[15]     c1        137
    x[15]     c2        306
    x[15]     c3        335
    x[15]     c4        756
    x[15]     c5        701
    x[15]     OBJ       -249
    x[16]     c1        298
    x[16]     c2        698
    x[16]     c3        114
    x[16]     c4        838
    x[16]     c5        224
    x[16]     OBJ       -390
    x[17]     c1        291
    x[17]     c2        195
    x[17]     c3        393
    x[17]     c4        546
    x[17]     c5        551
    x[17]     OBJ       -279
    x[18]     c1        118
    x[18]     c2        451
    x[18]     c3        514
    x[18]     c4        425
    x[18]     c5        126
    x[18]     OBJ       -854
    x[19]     c1        160
    x[19]     c2        255
    x[19]     c3        807
    x[19]     c4        37
    x[19]     c5        384
    x[19]     OBJ       -676
    x[20]     c1        710
    x[20]     c2        734
    x[20]     c3        305
    x[20]     c4        331
    x[20]     c5        633
    x[20]     OBJ       -818
    x[21]     c1        88
    x[21]     c2        340
    x[21]     c3        860
    x[21]     c4        6
    x[21]     c5        218
    x[21]     OBJ       -623
    x[22]     c1        426
    x[22]     c2        755
    x[22]     c3        740
    x[22]     c4        923
    x[22]     c5        26
    x[22]     OBJ       -890
    x[23]     c1        69
    x[23]     c2        3
    x[23]     c3        896
    x[23]     c4        866
    x[23]     c5        910
    x[23]     OBJ       -78
    x[24]     c1        849
    x[24]     c2        632
    x[24]     c3        639
    x[24]     c4        260
    x[24]     c5        168
    x[24]     OBJ       -463
    x[25]     c1        211
    x[25]     c2        175
    x[25]     c3        187
    x[25]     c4        739
    x[25]     c5        13
    x[25]     OBJ       -505
    x[26]     c1        280
    x[26]     c2        265
    x[26]     c3        740
    x[26]     c4        731
    x[26]     c5        929
    x[26]     OBJ       -257
    x[27]     c1        285
    x[27]     c2        804
    x[27]     c3        267
    x[27]     c4        406
    x[27]     c5        658
    x[27]     OBJ       -802
    x[28]     c1        776
    x[28]     c2        513
    x[28]     c3        271
    x[28]     c4        456
    x[28]     c5        320
    x[28]     OBJ       -422
    x[29]     c1        872
    x[29]     c2        805
    x[29]     c3        457
    x[29]     c4        620
    x[29]     c5        626
    x[29]     OBJ       -513
    x[30]     c1        884
    x[30]     c2        717
    x[30]     c3        638
    x[30]     c4        522
    x[30]     c5        73
    x[30]     OBJ       -989
RHS
    rhs       c1        6844
    rhs       c2        7535
    rhs       c3        7352
    rhs       c4        7063
    rhs       c5        6682
RANGES
BOUNDS
 BV bounds    x[1]
 BV bounds    x[2]
 BV bounds    x[3]
 BV bounds    x[4]
 BV bounds    x[5]
 BV bounds    x[6]
 BV bounds    x[7]
 BV bounds    x[8]
 BV bounds    x[9]
 BV bounds    x[10]
 BV bounds    x[11]
 BV bounds    x[12]
 BV bounds    x[13]
 BV bounds    x[14]
 BV bounds    x[15]
 BV bounds    x[16]
 BV bounds    x[17]
 BV bounds    x[18]
 BV bounds    x[19]
 BV bounds    x[20]
 BV bounds    x[21]
 BV bounds    x[22]
 BV bounds    x[23]
 BV bounds    x[24]
 BV bounds    x[25]
 BV bounds    x[26]
 BV bounds    x[27]
 BV bounds    x[28]
 BV bounds    x[29]
 BV bounds    x[30]
ENDATA
